35
Properties=species:S:1:pos:R:3 pbc="F F F"
O        1.54350000      -1.66180000       0.29630000
O        2.20470000       0.91430000      -0.41710000
O       -1.22060000      -1.91780000      -0.23550000
O       -0.17090000       2.08230000       0.36260000
O       -2.38710000       0.59460000      -0.66590000
C        0.94700000      -2.89330000      -0.10540000
C        3.20280000       0.00980000       0.05500000
C        2.77510000      -1.38720000      -0.37060000
C       -0.46400000      -2.90760000       0.46460000
C       -2.42630000      -1.56790000       0.44290000
C       -1.44370000       2.65580000       0.06760000
C       -3.18250000      -0.56490000      -0.42020000
C        2.20450000       2.16190000       0.27380000
C       -2.50020000       1.59580000       0.34670000
C        0.91770000       2.88610000      -0.09470000
H        0.91560000      -2.95250000      -1.19910000
H        1.53600000      -3.72360000       0.29670000
H        3.27040000       0.05570000       1.14800000
H        4.16760000       0.27850000      -0.38560000
H        2.61770000      -1.42100000      -1.45440000
H        3.52460000      -2.12940000      -0.07840000
H       -1.47910000       2.95970000      -0.98480000
H       -1.59640000       3.52780000       0.71130000
H       -2.17210000      -1.13110000       1.41390000
H       -3.03660000      -2.46430000       0.59680000
H       -0.93380000      -3.88410000       0.31030000
H       -0.44000000      -2.67280000       1.53510000
H       -2.34170000       1.15280000       1.33530000
H       -3.50100000       2.03680000       0.29560000
H       -3.38230000      -1.01340000      -1.39930000
H       -4.14330000      -0.29090000       0.02950000
H        0.84530000       3.00040000      -1.18200000
H        0.88000000       3.86890000       0.38640000
H        3.08160000       2.74370000      -0.02590000
H        2.22750000       1.98710000       1.35550000
