84
Properties=species:S:1:pos:R:3:occupancy:R:1:bfactor:R:1:residuenames:S:1:atomtypes:S:1:residuenumbers:I:1 pbc="F F F"
N       -7.58952361      11.46499460      44.81906188       1.00000000      17.29000000 QQ7 N01      202
C       -7.72842474      10.41572741      43.83613674       1.00000000      28.98000000 QQ7 C01      202
C       -6.36699163       9.67550005      43.90698413       1.00000000      28.57000000 QQ7 C02      202
N       -7.79997926      10.87261103      42.46039719       1.00000000      17.03000000 QQ7 N02      202
N       -5.62340686      10.43362150      44.90449883       1.00000000      19.18000000 QQ7 N03      202
N       -5.86471836       9.77595894      42.55380728       1.00000000      24.09000000 QQ7 N04      202
C       -4.32532691      10.06562654      45.44468875       1.00000000      27.67000000 QQ7 C03      202
C       -8.68844004      12.23925311      45.32599030       1.00000000      29.07000000 QQ7 C04      202
C       -6.34921536      11.48035575      45.40045289       1.00000000      14.95000000 QQ7 C05      202
C       -4.74334541       9.01105113      42.05594913       1.00000000      24.33000000 QQ7 C06      202
C       -9.03230211      11.33297753      41.84243516       1.00000000      25.09000000 QQ7 C07      202
C       -6.69391684      10.50012854      41.73436157       1.00000000      17.60000000 QQ7 C08      202
O       -5.97133567      12.27117127      46.20897050       1.00000000      14.59000000 QQ7 O01      202
O       -6.56089214      10.62663267      40.53592045       1.00000000      17.96000000 QQ7 O02      202
N       -3.19220487      10.40156253      44.59044613       1.00000000      22.35000000 QQ7 N05      202
N       -3.45284304       9.63569383      42.27688829       1.00000000      20.76000000 QQ7 N06      202
C       -2.71707955       9.53894408      43.52117426       1.00000000      25.34000000 QQ7 C09      202
C       -2.36309325      11.48601911      44.79139097       1.00000000      14.65000000 QQ7 C10      202
C       -2.67363373      10.08660865      41.24134028       1.00000000      17.61000000 QQ7 C11      202
O       -3.02556104      10.18998088      40.06865688       1.00000000      18.65000000 QQ7 O03      202
N       -1.42472761      10.37042131      41.73174304       1.00000000      20.06000000 QQ7 N07      202
O       -2.55939362      12.41259208      45.57197709       1.00000000      15.76000000 QQ7 O04      202
N       -1.26370466      11.35023591      43.97512285       1.00000000      16.32000000 QQ7 N08      202
C       -1.32558407      10.14726123      43.15984813       1.00000000      21.95000000 QQ7 C12      202
C       -0.30422275      10.70911759      40.88538633       1.00000000      13.70000000 QQ7 C13      202
C       -0.06963743      12.15870425      44.17905028       1.00000000      19.75000000 QQ7 C14      202
N        0.21604982      13.11108739      43.12472720       1.00000000      16.69000000 QQ7 N09      202
N        0.03859722      12.11701948      40.89923342       1.00000000      20.82000000 QQ7 N10      202
N       -9.08641608      13.32033702      44.46198702       1.00000000      17.22000000 QQ7 N11      202
N       -9.39685924      12.71434381      42.11904735       1.00000000      19.69000000 QQ7 N12      202
C        0.88877180      12.72522616      41.89632610       1.00000000      10.46000000 QQ7 C15      202
C       -0.27917089      12.98681833      39.88853891       1.00000000      21.59000000 QQ7 C16      202
C        0.27500731      14.46137073      43.34952024       1.00000000      14.79000000 QQ7 C17      202
O       -1.02938018      12.75652376      38.94992160       1.00000000      19.43000000 QQ7 O05      202
N        0.44394684      14.13265852      40.07010981       1.00000000      17.05000000 QQ7 N13      202
O       -0.07112167      15.03421140      44.38955548       1.00000000      16.88000000 QQ7 O06      202
N        0.94182078      15.03996135      42.30274438       1.00000000      18.31000000 QQ7 N14      202
C        1.27254051      14.07998749      41.25918143       1.00000000      10.59000000 QQ7 C18      202
C      -10.00331105      13.16464034      43.35674127       1.00000000      27.88000000 QQ7 C19      202
C       -8.88998390      14.63134025      44.81016070       1.00000000      12.76000000 QQ7 C20      202
C       -9.42501116      13.68260115      41.14568093       1.00000000      14.35000000 QQ7 C21      202
O       -8.96867365      13.57719877      40.02794420       1.00000000      16.18000000 QQ7 O07      202
N      -10.04922231      14.79188943      41.65459541       1.00000000      20.43000000 QQ7 N15      202
O       -8.34497787      15.00589951      45.82939020       1.00000000      10.25000000 QQ7 O08      202
N       -9.67425955      15.40837303      44.00338082       1.00000000      15.46000000 QQ7 N16      202
C      -10.43566977      14.61761635      43.04494546       1.00000000      26.15000000 QQ7 C22      202
N       -9.54223304      17.07523319      40.90808274       1.00000000      20.13000000 QQ7 N17      202
N       -9.04033227      17.63634401      43.24145396       1.00000000      17.84000000 QQ7 N18      202
C       -8.72129874      17.44482021      39.86707443       1.00000000      18.72000000 QQ7 C23      202
C       -9.57110767      18.07490533      41.96646398       1.00000000      20.70000000 QQ7 C24      202
C       -7.84046215      18.23757724      43.54521094       1.00000000      11.50000000 QQ7 C25      202
O       -7.25773470      18.15445121      44.60353356       1.00000000      11.86000000 QQ7 O09      202
N       -7.51586281      19.09521378      42.52772440       1.00000000      12.75000000 QQ7 N19      202
O       -8.64289876      16.87770340      38.78610728       1.00000000      17.38000000 QQ7 O10      202
N       -8.11896761      18.63767296      40.19437938       1.00000000      17.83000000 QQ7 N20      202
C       -6.50490331      20.13224920      42.69611803       1.00000000      11.57000000 QQ7 C26      202
C       -8.53594404      19.13267392      41.49436773       1.00000000      16.79000000 QQ7 C27      202
C       -7.35592384      19.44451612      39.25362951       1.00000000      10.46000000 QQ7 C28      202
N       -5.33514464      20.00508258      41.85373848       1.00000000      13.81000000 QQ7 N21      202
N       -5.92987781      19.50451879      39.52538749       1.00000000      12.86000000 QQ7 N22      202
C       -4.07965877      19.77045694      42.36519917       1.00000000      16.66000000 QQ7 C29      202
C       -5.29388536      20.41229712      40.45650407       1.00000000      10.33000000 QQ7 C30      202
C       -5.02560594      18.73832927      38.84598186       1.00000000      14.49000000 QQ7 C31      202
O       -5.29686040      17.93581601      37.97781341       1.00000000      15.54000000 QQ7 O11      202
N       -3.76118726      19.15220587      39.19178610       1.00000000      15.17000000 QQ7 N23      202
O       -3.82210382      19.52581883      43.53955927       1.00000000      18.03000000 QQ7 O12      202
N       -3.15998205      20.05154991      41.37987513       1.00000000      15.37000000 QQ7 N24      202
C       -2.58949253      18.83746607      38.38341469       1.00000000      10.41000000 QQ7 C32      202
C       -1.72709321      20.20297795      41.59799005       1.00000000      10.10000000 QQ7 C33      202
C       -3.78984079      20.28138792      40.09879650       1.00000000      10.60000000 QQ7 C34      202
N       -0.94605854      19.02247270      41.24609635       1.00000000      14.27000000 QQ7 N25      202
N       -1.56143214      18.07246658      39.06461114       1.00000000      17.90000000 QQ7 N26      202
C       -0.32538070      18.26098802      42.20275621       1.00000000      14.30000000 QQ7 C35      202
C       -0.53066659      18.66306112      39.89459094       1.00000000      10.71000000 QQ7 C36      202
C       -1.30369243      16.75449840      38.76913841       1.00000000      19.75000000 QQ7 C37      202
O       -1.98516104      16.03649514      38.05275734       1.00000000      24.76000000 QQ7 O13      202
N       -0.12991590      16.39334098      39.37917036       1.00000000      15.42000000 QQ7 N27      202
O       -0.32761634      18.49325074      43.39725194       1.00000000      16.75000000 QQ7 O      202
N        0.44563407      17.31873854      41.57580474       1.00000000      14.92000000 QQ7 N      202
C        0.45839143      17.47926720      40.13080308       1.00000000      10.41000000 QQ7 C38      202
C      -10.43816565      15.93107800      40.83809221       1.00000000      20.96000000 QQ7 C39      202
C       -9.80388369      16.84035809      44.18748232       1.00000000      24.46000000 QQ7 C40      202
C        1.35241888      16.43496268      42.29868337       1.00000000      10.08000000 QQ7 C41      202
C        0.56422277      15.16085256      39.05290545       1.00000000      10.37000000 QQ7 C      202
